17	4
18	13	32	12	
0	0	0	0	0	3	2	3	4	
1	2	0	0	0	1	6	
4	0	0	4	0	3	5	8	17	
8	0	7	0	0	3	7	9	13	
6	0	1	0	0	2	9	16	
75	0	2	0	0	3	10	11	12	
75	0	0	0	7	3	14	17	17	
225	0	0	6	0	3	17	17	17	
50	0	2	0	0	1	17	
150	1	0	0	0	2	17	17	
200	0	0	8	0	2	15	17	
100	0	0	1	0	2	14	17	
9	0	0	8	0	1	17	
4	0	0	0	1	1	17	
10	0	8	0	0	2	17	17	
9	0	0	0	5	1	17	
0	0	0	0	0	0	
